SCIP version 5.0.0 [precision: 8 byte] [memory: block] [mode: optimized] [LP solver: NONE] [GitHash: 3bbd232]
Copyright (C) 2002-2017 Konrad-Zuse-Zentrum fuer Informationstechnik Berlin (ZIB)

External codes: 
  Readline EditLine w  GNU library for command line editing (gnu.org/s/readline)
  CppAD 20160000.1     Algorithmic Differentiation of C++ algorithms developed by B. Bell (www.coin-or.org/CppAD)
  ZLIB 1.2.5           General purpose compression library by J. Gailly and M. Adler (zlib.net)
  GMP 6.1.2            GNU Multiple Precision Arithmetic Library developed by T. Granlund (gmplib.org)

user parameter file <scip.set> not found - using default parameters

read problem <../../Split_data/output/parkin/1/3_sample_parkin.logreg>
============

File name	:	../../Split_data/output/parkin/1/3_sample_parkin.logreg
Problem name 	:	3_sample_parkin
Number of data	:	156
Number of var	:	22
The given data has linear independence

[dim=1] time: 0.007523
[dim=2] time: 0.013895
[dim=3] time: 0.017127
[dim=4] time: 0.021886
[dim=5] time: 0.025095
[dim=6] time: 0.027881
[dim=7] Time of forward = 0.030087sec.
AIC: 95.5718
k: 6

[dim=22] time: 0.102885
[dim=21] time: 0.163725
[dim=20] time: 0.172074
[dim=19] time: 0.210188
[dim=18] time: 0.214809
[dim=17] time: 0.250495
[dim=16] time: 0.294907
[dim=15] time: 0.331386
[dim=14] time: 0.361835
[dim=13] time: 0.375764
[dim=12] time: 0.378848
[dim=11] time: 0.381271
[dim=10] time: 0.383937
[dim=9] time: 0.386045
[dim=8] Time of backward = 0.387569sec.
AIC: 79.2397
k: 9
